c defined variables: 4 9 13 18 22 27 31 35 36 37 38 42 46 51 55 59 64 68 72 73 74 78 82 86 87 88 89 93 97 101 105 109 113 114 118 119 120 124 128 132 133 134 138 142 146 147 148 149 153 157 161 162 163 164 168 172 173 174 178 182 186 187 188 192 196 197 198 202 206 207 208 212 216 220 224 228 232 236 240 241 242 243 247 251 259 263 267 271 275 276 277 281 285 289 290 291 292 296 303 307 311 312 316 317 318 322 331 332 333 337 341 355 359 366 367 368 369 382 393 400 401 402 409 413 414 415 419 423 424 425 428 429 431 432 433 434 437 438 439 440 443 445 446 449 450 454 457 458 461 462 463 464 465 466 469 
p cnf 1504 1646
a 362 387 372 358 381 365 378 375 399 405 58 62 77 67 81 54 49 92 34 96 412 422 418 408 325 336 266 262 270 280 302 340 288 274 21 25 45 16 41 30 12 1 6 392 354 321 310 306 315 330 348 344 396 223 250 219 205 215 211 201 185 195 191 50 7 26 2 3 17 63 8 227 231 246 235 299 295 239 254 284 258 123 104 127 137 100 141 85 71 108 112 152 177 167 156 117 131 145 181 160 171 0
e 5 10 11 14 15 19 20 23 24 28 29 32 33 39 40 43 44 47 48 52 53 56 57 60 61 65 66 69 70 75 76 79 80 83 84 90 91 94 95 98 99 102 103 106 107 110 111 115 116 121 122 125 126 129 130 135 136 139 140 143 144 150 151 154 155 158 159 165 166 169 170 175 176 179 180 183 184 189 190 193 194 199 200 203 204 209 210 213 214 217 218 221 222 225 226 229 230 233 234 237 238 244 245 248 249 252 253 256 257 260 261 264 265 268 269 272 273 278 279 282 283 286 287 293 294 297 298 300 301 304 305 308 309 313 314 319 320 323 324 327 328 329 334 335 338 339 342 343 346 347 350 351 352 353 356 357 360 361 363 364 370 371 373 374 376 377 379 380 384 385 386 389 390 391 394 395 397 398 403 404 406 407 410 411 416 417 420 421 426 427 430 435 436 441 442 444 447 448 451 452 455 456 459 460 467 468 4 9 13 18 22 27 31 35 36 37 38 42 46 51 55 59 64 68 72 73 74 78 82 86 87 88 89 93 97 101 105 109 113 114 118 119 120 124 128 132 133 134 138 142 146 147 148 149 153 157 161 162 163 164 168 172 173 174 178 182 186 187 188 192 196 197 198 202 206 207 208 212 216 220 224 228 232 236 240 241 242 243 247 251 259 263 267 271 275 276 277 281 285 289 290 291 292 296 303 307 311 312 316 317 318 322 331 332 333 337 341 355 359 366 367 368 369 382 393 400 401 402 409 413 414 415 419 423 424 425 428 429 431 432 433 434 437 438 439 440 443 445 446 449 450 454 457 458 461 462 463 464 465 466 469 1353 1354 1355 1356 1357 1358 1359 1360 1361 1362 1363 1364 1365 1366 1367 1368 1369 1370 1371 1372 1373 1374 1375 1376 1377 1378 1379 1380 1381 1382 1383 1384 1385 1386 1387 1388 1389 1390 1391 1392 1393 1394 1395 1396 1397 1398 1399 1400 1401 1402 1403 1404 1405 1406 1407 1408 1409 1410 1411 1412 1413 1414 1415 1416 1417 1418 1419 1420 1421 1422 1423 1424 1425 1426 1427 1428 1429 1430 1431 1432 1433 1434 1435 1436 1437 1438 1439 1440 1441 1442 1443 1444 1445 1446 1447 1448 1449 1450 1451 1452 1453 1454 1455 1456 1457 1458 1459 1460 1461 1462 1463 1464 1465 1466 1467 1468 1469 1470 1471 1472 1473 1474 1475 1476 1477 1478 1479 1480 1481 1482 1483 1484 1485 1486 1487 1488 1489 1490 1491 1492 1493 1494 1495 1496 1497 1498 1499 1500 1501 1502 1503 1504 0
d 345 299 254 0
d 326 26 17 0
d 255 50 2 0
d 453 405 396 0
d 349 344 0
d 383 378 375 0
d 388 362 372 0
1354 -4 0
-1354 4 0
1355 -9 0
-1355 9 0
-1358 -13 0
1358 13 0
1359 -18 0
-1359 18 0
1360 -22 0
-1360 22 0
1361 -27 0
-1361 27 0
-1364 -31 0
1364 31 0
-1353 -35 0
1353 35 0
-1353 -36 0
1353 36 0
1356 -37 0
-1356 37 0
-1365 -38 0
1365 38 0
-1368 -42 0
1368 42 0
-1371 -46 0
1371 46 0
1372 -51 0
-1372 51 0
1373 -55 0
-1373 55 0
1374 -59 0
-1374 59 0
1375 -64 0
-1375 64 0
-1378 -68 0
1378 68 0
1366 -72 0
-1366 72 0
1362 -73 0
-1362 73 0
-1379 -74 0
1379 74 0
-1382 -78 0
1382 78 0
-1385 -82 0
1385 82 0
-1353 -86 0
1353 86 0
-1353 -87 0
1353 87 0
1369 -88 0
-1369 88 0
1386 -89 0
-1386 89 0
-1389 -93 0
1389 93 0
-1392 -97 0
1392 97 0
1393 -101 0
-1393 101 0
1394 -105 0
-1394 105 0
1395 -109 0
-1395 109 0
-1353 -113 0
1353 113 0
1396 -114 0
-1396 114 0
1380 -118 0
-1380 118 0
1376 -119 0
-1376 119 0
-1397 -120 0
1397 120 0
-1400 -124 0
1400 124 0
-1403 -128 0
1403 128 0
1387 -132 0
-1387 132 0
1383 -133 0
-1383 133 0
-1404 -134 0
1404 134 0
-1407 -138 0
1407 138 0
-1410 -142 0
1410 142 0
-1353 -146 0
1353 146 0
-1353 -147 0
1353 147 0
1390 -148 0
-1390 148 0
1411 -149 0
-1411 149 0
1412 -153 0
-1412 153 0
1413 -157 0
-1413 157 0
1398 -161 0
-1398 161 0
-1353 -162 0
1353 162 0
-1353 -163 0
1353 163 0
1414 -164 0
-1414 164 0
-1417 -168 0
1417 168 0
1405 -172 0
-1405 172 0
1401 -173 0
-1401 173 0
-1418 -174 0
1418 174 0
-1421 -178 0
1421 178 0
-1424 -182 0
1424 182 0
1425 -186 0
-1425 186 0
1408 -187 0
-1408 187 0
-1426 -188 0
1426 188 0
1427 -192 0
-1427 192 0
1419 -196 0
-1419 196 0
1415 -197 0
-1415 197 0
-1428 -198 0
1428 198 0
-1431 -202 0
1431 202 0
1432 -206 0
-1432 206 0
1422 -207 0
-1422 207 0
-1433 -208 0
1433 208 0
1354 -212 0
-1354 212 0
1355 -216 0
-1355 216 0
-1436 -220 0
1436 220 0
1359 -224 0
-1359 224 0
1360 -228 0
-1360 228 0
1361 -232 0
-1361 232 0
-1439 -236 0
1439 236 0
-1353 -240 0
1353 240 0
-1353 -241 0
1353 241 0
1434 -242 0
-1434 242 0
1440 -243 0
-1440 243 0
-1443 -247 0
1443 247 0
-1446 -251 0
1446 251 0
1373 -259 0
-1373 259 0
1374 -263 0
-1374 263 0
1375 -267 0
-1375 267 0
-1449 -271 0
1449 271 0
1441 -275 0
-1441 275 0
1437 -276 0
-1437 276 0
-1450 -277 0
1450 277 0
1451 -281 0
-1451 281 0
-1454 -285 0
1454 285 0
-1353 -289 0
1353 289 0
-1353 -290 0
1353 290 0
1444 -291 0
-1444 291 0
1455 -292 0
-1455 292 0
-1458 -296 0
1458 296 0
1393 -303 0
-1393 303 0
1395 -307 0
-1395 307 0
-1353 -311 0
1353 311 0
1459 -312 0
-1459 312 0
1451 -316 0
-1451 316 0
1447 -317 0
-1447 317 0
-1460 -318 0
1460 318 0
-1463 -322 0
1463 322 0
1456 -331 0
-1456 331 0
1452 -332 0
-1452 332 0
-1464 -333 0
1464 333 0
-1467 -337 0
1467 337 0
-1470 -341 0
1470 341 0
1412 -355 0
-1412 355 0
1413 -359 0
-1413 359 0
1461 -366 0
-1461 366 0
-1353 -367 0
1353 367 0
-1353 -368 0
1353 368 0
1471 -369 0
-1471 369 0
1465 -382 0
-1465 382 0
-1474 -393 0
1474 393 0
1475 -400 0
-1475 400 0
1468 -401 0
-1468 401 0
-1476 -402 0
1476 402 0
1427 -409 0
-1427 409 0
1477 -413 0
-1477 413 0
1478 -414 0
-1478 414 0
-1479 -415 0
1479 415 0
-1482 -419 0
1482 419 0
1483 -423 0
-1483 423 0
1472 -424 0
-1472 424 0
-1484 -425 0
1484 425 0
1485 -428 0
-1485 428 0
1485 -429 0
-1485 429 0
-1353 -431 0
1353 431 0
1486 -432 0
-1486 432 0
-1353 -433 0
1353 433 0
1487 -434 0
-1487 434 0
-1353 -437 0
1353 437 0
1488 -438 0
-1488 438 0
-1353 -439 0
1353 439 0
1489 -440 0
-1489 440 0
-1353 -443 0
1353 443 0
-1353 -445 0
1353 445 0
1490 -446 0
-1490 446 0
-1492 -449 0
1492 449 0
-1494 -450 0
1494 450 0
-1496 -454 0
1496 454 0
-1499 -457 0
1499 457 0
-1502 -458 0
1502 458 0
1497 -461 0
-1497 461 0
1480 -462 0
-1480 462 0
-1503 -463 0
1503 463 0
1500 -464 0
-1500 464 0
1429 -465 0
-1429 465 0
-1504 -466 0
1504 466 0
1353 -469 0
-1353 469 0
469 0
-469 427 468 0
-427 421 -426 0
-421 417 -420 0
-417 411 -416 0
-411 407 -410 0
-407 404 -406 0
-404 398 -403 0
-398 395 -397 0
-395 391 -394 0
-391 386 -390 0
-386 380 -385 0
-380 377 -379 0
-377 374 -376 0
-374 371 -373 0
-371 364 -370 0
-364 361 -363 0
-361 357 -360 0
-357 353 -356 0
-353 347 -352 0
-347 343 -346 0
-343 339 -342 0
-339 335 -338 0
-335 329 -334 0
-329 324 -328 0
-324 320 -323 0
-320 314 -319 0
-314 309 -313 0
-309 305 -308 0
-305 301 -304 0
-301 298 -300 0
-298 294 -297 0
-294 287 -293 0
-287 283 -286 0
-283 279 -282 0
-279 273 -278 0
-273 269 -272 0
-269 265 -268 0
-265 261 -264 0
-261 257 -260 0
-257 253 -256 0
-253 249 -252 0
-249 245 -248 0
-245 238 -244 0
-238 234 -237 0
-234 230 -233 0
-230 226 -229 0
-226 222 -225 0
-222 218 -221 0
-218 214 -217 0
-214 210 -213 0
-210 204 -209 0
-204 200 -203 0
-200 194 -199 0
-194 190 -193 0
-190 184 -189 0
-184 180 -183 0
-180 176 -179 0
-176 170 -175 0
-170 166 -169 0
-166 159 -165 0
-159 155 -158 0
-155 151 -154 0
-151 144 -150 0
-144 140 -143 0
-140 136 -139 0
-136 130 -135 0
-130 126 -129 0
-126 122 -125 0
-122 116 -121 0
-116 111 -115 0
-111 107 -110 0
-107 103 -106 0
-103 99 -102 0
-99 95 -98 0
-95 91 -94 0
-91 84 -90 0
-84 80 -83 0
-80 76 -79 0
-76 70 -75 0
-70 66 -69 0
-66 61 -65 0
-61 57 -60 0
-57 53 -56 0
-53 48 -52 0
-48 44 -47 0
-44 40 -43 0
-40 33 -39 0
-33 29 -32 0
-29 24 -28 0
-24 20 -23 0
-20 15 -19 0
-15 11 -14 0
-11 -5 -10 0
1 4 5 0
-1 -4 5 0
-2 -3 4 0
-4 2 0
-4 3 0
6 9 10 0
-6 -9 10 0
-7 -8 9 0
-9 7 0
-9 8 0
12 -13 14 0
-12 13 14 0
-13 -1 6 0
-13 1 -6 0
1 6 13 0
-1 -6 13 0
16 18 19 0
-16 -18 19 0
-2 -17 18 0
-18 2 0
-18 17 0
21 22 23 0
-21 -22 23 0
-7 -3 22 0
-22 7 0
-22 3 0
25 27 28 0
-25 -27 28 0
-26 -8 27 0
-27 26 0
-27 8 0
30 -31 32 0
-30 31 32 0
-31 -21 25 0
-31 21 -25 0
21 25 31 0
-21 -25 31 0
34 38 39 0
-34 -38 39 0
-36 37 38 0
36 -37 38 0
-36 -37 38 0
-12 -35 36 0
-2 2 35 0
-1 -6 37 0
-38 36 37 0
-36 12 0
-36 35 0
-35 2 0
-35 -2 0
-37 1 0
-37 6 0
41 -42 43 0
-41 42 43 0
-42 -30 34 0
-42 30 -34 0
30 34 42 0
-30 -34 42 0
45 -46 47 0
-45 46 47 0
-46 -16 41 0
-46 16 -41 0
16 41 46 0
-16 -41 46 0
49 51 52 0
-49 -51 52 0
-2 -50 51 0
-51 2 0
-51 50 0
54 55 56 0
-54 -55 56 0
-7 -17 55 0
-55 7 0
-55 17 0
58 59 60 0
-58 -59 60 0
-26 -3 59 0
-59 26 0
-59 3 0
62 64 65 0
-62 -64 65 0
-63 -8 64 0
-64 63 0
-64 8 0
67 -68 69 0
-67 68 69 0
-68 -58 62 0
-68 58 -62 0
58 62 68 0
-58 -62 68 0
71 74 75 0
-71 -74 75 0
-72 73 74 0
72 -73 74 0
-72 -73 74 0
-30 -34 72 0
-21 -25 73 0
-74 72 73 0
-72 30 0
-72 34 0
-73 21 0
-73 25 0
77 -78 79 0
-77 78 79 0
-78 -67 71 0
-78 67 -71 0
67 71 78 0
-67 -71 78 0
81 -82 83 0
-81 82 83 0
-82 -54 77 0
-82 54 -77 0
54 77 82 0
-54 -77 82 0
85 89 90 0
-85 -89 90 0
-87 88 89 0
87 -88 89 0
-87 -88 89 0
-45 -86 87 0
-2 2 86 0
-16 -41 88 0
-89 87 88 0
-87 45 0
-87 86 0
-86 2 0
-86 -2 0
-88 16 0
-88 41 0
92 -93 94 0
-92 93 94 0
-93 -81 85 0
-93 81 -85 0
81 85 93 0
-81 -85 93 0
96 -97 98 0
-96 97 98 0
-97 -49 92 0
-97 49 -92 0
49 92 97 0
-49 -92 97 0
100 101 102 0
-100 -101 102 0
-7 -50 101 0
-101 7 0
-101 50 0
104 105 106 0
-104 -105 106 0
-26 -17 105 0
-105 26 0
-105 17 0
108 109 110 0
-108 -109 110 0
-63 -3 109 0
-109 63 0
-109 3 0
112 -114 115 0
-112 114 115 0
-114 -108 113 0
-114 108 -113 0
-113 2 0
-113 -2 0
-2 2 113 0
108 113 114 0
-108 -113 114 0
-2 2 113 0
-113 2 0
-113 -2 0
117 120 121 0
-117 -120 121 0
-118 119 120 0
118 -119 120 0
-118 -119 120 0
-67 -71 118 0
-58 -62 119 0
-120 118 119 0
-118 67 0
-118 71 0
-119 58 0
-119 62 0
123 -124 125 0
-123 124 125 0
-124 -112 117 0
-124 112 -117 0
112 117 124 0
-112 -117 124 0
127 -128 129 0
-127 128 129 0
-128 -104 123 0
-128 104 -123 0
104 123 128 0
-104 -123 128 0
131 134 135 0
-131 -134 135 0
-132 133 134 0
132 -133 134 0
-132 -133 134 0
-81 -85 132 0
-54 -77 133 0
-134 132 133 0
-132 81 0
-132 85 0
-133 54 0
-133 77 0
137 -138 139 0
-137 138 139 0
-138 -127 131 0
-138 127 -131 0
127 131 138 0
-127 -131 138 0
141 -142 143 0
-141 142 143 0
-142 -100 137 0
-142 100 -137 0
100 137 142 0
-100 -137 142 0
145 149 150 0
-145 -149 150 0
-147 148 149 0
147 -148 149 0
-147 -148 149 0
-96 -146 147 0
-2 2 146 0
-49 -92 148 0
-149 147 148 0
-147 96 0
-147 146 0
-146 2 0
-146 -2 0
-148 49 0
-148 92 0
152 153 154 0
-152 -153 154 0
-26 -50 153 0
-153 26 0
-153 50 0
156 157 158 0
-156 -157 158 0
-63 -17 157 0
-157 63 0
-157 17 0
160 164 165 0
-160 -164 165 0
-161 163 164 0
161 -163 164 0
-161 -163 164 0
-112 -117 161 0
-108 -162 163 0
-2 2 162 0
-164 161 163 0
-161 112 0
-161 117 0
-163 108 0
-163 162 0
-162 2 0
-162 -2 0
167 -168 169 0
-167 168 169 0
-168 -156 160 0
-168 156 -160 0
156 160 168 0
-156 -160 168 0
171 174 175 0
-171 -174 175 0
-172 173 174 0
172 -173 174 0
-172 -173 174 0
-127 -131 172 0
-104 -123 173 0
-174 172 173 0
-172 127 0
-172 131 0
-173 104 0
-173 123 0
177 -178 179 0
-177 178 179 0
-178 -167 171 0
-178 167 -171 0
167 171 178 0
-167 -171 178 0
181 -182 183 0
-181 182 183 0
-182 -152 177 0
-182 152 -177 0
152 177 182 0
-152 -177 182 0
185 188 189 0
-185 -188 189 0
-186 187 188 0
186 -187 188 0
-186 -187 188 0
-141 -145 186 0
-100 -137 187 0
-188 186 187 0
-186 141 0
-186 145 0
-187 100 0
-187 137 0
191 192 193 0
-191 -192 193 0
-63 -50 192 0
-192 63 0
-192 50 0
195 198 199 0
-195 -198 199 0
-196 197 198 0
196 -197 198 0
-196 -197 198 0
-167 -171 196 0
-156 -160 197 0
-198 196 197 0
-196 167 0
-196 171 0
-197 156 0
-197 160 0
201 -202 203 0
-201 202 203 0
-202 -191 195 0
-202 191 -195 0
191 195 202 0
-191 -195 202 0
205 208 209 0
-205 -208 209 0
-206 207 208 0
206 -207 208 0
-206 -207 208 0
-181 -185 206 0
-152 -177 207 0
-208 206 207 0
-206 181 0
-206 185 0
-207 152 0
-207 177 0
211 212 213 0
-211 -212 213 0
-2 -3 212 0
-212 2 0
-212 3 0
215 216 217 0
-215 -216 217 0
-7 -8 216 0
-216 7 0
-216 8 0
219 -220 221 0
-219 220 221 0
-220 -211 215 0
-220 211 -215 0
211 215 220 0
-211 -215 220 0
223 224 225 0
-223 -224 225 0
-2 -17 224 0
-224 2 0
-224 17 0
227 228 229 0
-227 -228 229 0
-7 -3 228 0
-228 7 0
-228 3 0
231 232 233 0
-231 -232 233 0
-26 -8 232 0
-232 26 0
-232 8 0
235 -236 237 0
-235 236 237 0
-236 -227 231 0
-236 227 -231 0
227 231 236 0
-227 -231 236 0
239 243 244 0
-239 -243 244 0
-241 242 243 0
241 -242 243 0
-241 -242 243 0
-219 -240 241 0
-2 2 240 0
-211 -215 242 0
-243 241 242 0
-241 219 0
-241 240 0
-240 2 0
-240 -2 0
-242 211 0
-242 215 0
246 -247 248 0
-246 247 248 0
-247 -235 239 0
-247 235 -239 0
235 239 247 0
-235 -239 247 0
250 -251 252 0
-250 251 252 0
-251 -223 246 0
-251 223 -246 0
223 246 251 0
-223 -246 251 0
254 255 256 0
-254 -255 256 0
258 259 260 0
-258 -259 260 0
-7 -17 259 0
-259 7 0
-259 17 0
262 263 264 0
-262 -263 264 0
-26 -3 263 0
-263 26 0
-263 3 0
266 267 268 0
-266 -267 268 0
-63 -8 267 0
-267 63 0
-267 8 0
270 -271 272 0
-270 271 272 0
-271 -262 266 0
-271 262 -266 0
262 266 271 0
-262 -266 271 0
274 277 278 0
-274 -277 278 0
-275 276 277 0
275 -276 277 0
-275 -276 277 0
-235 -239 275 0
-227 -231 276 0
-277 275 276 0
-275 235 0
-275 239 0
-276 227 0
-276 231 0
280 -281 282 0
-280 281 282 0
-281 270 0
-281 274 0
-270 -274 281 0
284 -285 286 0
-284 285 286 0
-285 -258 280 0
-285 258 -280 0
258 280 285 0
-258 -280 285 0
288 292 293 0
-288 -292 293 0
-290 291 292 0
290 -291 292 0
-290 -291 292 0
-250 -289 290 0
-2 2 289 0
-223 -246 291 0
-292 290 291 0
-290 250 0
-290 289 0
-289 2 0
-289 -2 0
-291 223 0
-291 246 0
295 -296 297 0
-295 296 297 0
-296 -284 288 0
-296 284 -288 0
284 288 296 0
-284 -288 296 0
299 295 300 0
-299 -295 300 0
302 303 304 0
-302 -303 304 0
-7 -50 303 0
-303 7 0
-303 50 0
306 307 308 0
-306 -307 308 0
-63 -3 307 0
-307 63 0
-307 3 0
310 -312 313 0
-310 312 313 0
-312 -306 311 0
-312 306 -311 0
-311 2 0
-311 -2 0
-2 2 311 0
306 311 312 0
-306 -311 312 0
-2 2 311 0
-311 2 0
-311 -2 0
315 318 319 0
-315 -318 319 0
-316 317 318 0
316 -317 318 0
-316 -317 318 0
-270 -274 316 0
-262 -266 317 0
-318 316 317 0
-316 270 0
-316 274 0
-317 262 0
-317 266 0
321 -322 323 0
-321 322 323 0
-322 -310 315 0
-322 310 -315 0
310 315 322 0
-310 -315 322 0
325 -327 328 0
-325 327 328 0
-327 -326 321 0
-327 326 -321 0
326 321 327 0
-326 -321 327 0
330 333 334 0
-330 -333 334 0
-331 332 333 0
331 -332 333 0
-331 -332 333 0
-284 -288 331 0
-258 -280 332 0
-333 331 332 0
-331 284 0
-331 288 0
-332 258 0
-332 280 0
336 -337 338 0
-336 337 338 0
-337 -325 330 0
-337 325 -330 0
325 330 337 0
-325 -330 337 0
340 -341 342 0
-340 341 342 0
-341 -302 336 0
-341 302 -336 0
302 336 341 0
-302 -336 341 0
344 345 346 0
-344 -345 346 0
348 351 352 0
-348 -351 352 0
-349 350 351 0
349 -350 351 0
-349 -350 351 0
-255 -295 350 0
-351 349 350 0
-350 255 0
-350 295 0
354 355 356 0
-354 -355 356 0
-26 -50 355 0
-355 26 0
-355 50 0
358 359 360 0
-358 -359 360 0
-63 -17 359 0
-359 63 0
-359 17 0
362 358 363 0
-362 -358 363 0
365 369 370 0
-365 -369 370 0
-366 368 369 0
366 -368 369 0
-366 -368 369 0
-310 -315 366 0
-306 -367 368 0
-2 2 367 0
-369 366 368 0
-366 310 0
-366 315 0
-368 306 0
-368 367 0
-367 2 0
-367 -2 0
372 365 373 0
-372 -365 373 0
375 326 376 0
-375 -326 376 0
378 321 379 0
-378 -321 379 0
381 384 385 0
-381 -384 385 0
-382 383 384 0
382 -383 384 0
-382 -383 384 0
-325 -330 382 0
-384 382 383 0
-382 325 0
-382 330 0
387 -389 390 0
-387 389 390 0
-389 -388 381 0
-389 388 -381 0
388 381 389 0
-388 -381 389 0
392 -393 394 0
-392 393 394 0
-393 -354 387 0
-393 354 -387 0
354 387 393 0
-354 -387 393 0
396 392 397 0
-396 -392 397 0
399 402 403 0
-399 -402 403 0
-400 401 402 0
400 -401 402 0
-400 -401 402 0
-340 -348 400 0
-302 -336 401 0
-402 400 401 0
-400 340 0
-400 348 0
-401 302 0
-401 336 0
405 399 406 0
-405 -399 406 0
408 409 410 0
-408 -409 410 0
-63 -50 409 0
-409 63 0
-409 50 0
412 415 416 0
-412 -415 416 0
-413 414 415 0
413 -414 415 0
-413 -414 415 0
-388 -381 413 0
-358 -365 414 0
-415 413 414 0
-413 388 0
-413 381 0
-414 358 0
-414 365 0
418 -419 420 0
-418 419 420 0
-419 -408 412 0
-419 408 -412 0
408 412 419 0
-408 -412 419 0
422 425 426 0
-422 -425 426 0
-423 424 425 0
423 -424 425 0
-423 -424 425 0
-392 -399 423 0
-354 -387 424 0
-425 423 424 0
-423 392 0
-423 399 0
-424 354 0
-424 387 0
-468 460 0
-468 467 0
-460 456 0
-460 459 0
-456 452 0
-456 455 0
-452 448 0
-452 451 0
-448 442 0
-448 447 0
-442 436 0
-442 441 0
-436 430 0
-436 435 0
-430 -428 429 0
-430 428 -429 0
-428 2 0
-428 8 0
-429 2 0
-429 8 0
-2 -8 428 0
-2 -8 429 0
-435 432 -434 0
-435 -432 434 0
219 431 432 0
-219 -431 432 0
-2 2 431 0
-431 2 0
-431 -2 0
12 433 434 0
-12 -433 434 0
-2 2 433 0
-433 2 0
-433 -2 0
-432 -219 431 0
-432 219 -431 0
-431 2 0
-431 -2 0
-2 2 431 0
-434 -12 433 0
-434 12 -433 0
-433 2 0
-433 -2 0
-2 2 433 0
-441 438 -440 0
-441 -438 440 0
250 437 438 0
-250 -437 438 0
-2 2 437 0
-437 2 0
-437 -2 0
45 439 440 0
-45 -439 440 0
-2 2 439 0
-439 2 0
-439 -2 0
-438 -250 437 0
-438 250 -437 0
-437 2 0
-437 -2 0
-2 2 437 0
-440 -45 439 0
-440 45 -439 0
-439 2 0
-439 -2 0
-2 2 439 0
-447 444 -446 0
-447 -444 446 0
345 443 444 0
-345 -443 444 0
-2 2 443 0
-443 2 0
-443 -2 0
96 445 446 0
-96 -445 446 0
-2 2 445 0
-445 2 0
-445 -2 0
-444 -345 443 0
-444 345 -443 0
-443 2 0
-443 -2 0
-2 2 443 0
-446 -96 445 0
-446 96 -445 0
-445 2 0
-445 -2 0
-2 2 445 0
-451 449 -450 0
-451 -449 450 0
340 348 449 0
-340 -348 449 0
141 145 450 0
-141 -145 450 0
-449 -340 348 0
-449 340 -348 0
-450 -141 145 0
-450 141 -145 0
-455 -453 -454 0
-455 453 454 0
181 185 454 0
-181 -185 454 0
-454 -181 185 0
-454 181 -185 0
-459 457 -458 0
-459 -457 458 0
418 422 457 0
-418 -422 457 0
201 205 458 0
-201 -205 458 0
-457 -418 422 0
-457 418 -422 0
-458 -201 205 0
-458 201 -205 0
-467 -463 466 0
-467 463 -466 0
-463 461 462 0
-461 418 0
-461 422 0
-462 408 0
-462 412 0
-466 464 465 0
-464 201 0
-464 205 0
-465 191 0
-465 195 0
-461 462 463 0
461 -462 463 0
-461 -462 463 0
-418 -422 461 0
-408 -412 462 0
-464 465 466 0
464 -465 466 0
-464 -465 466 0
-201 -205 464 0
-191 -195 465 0
1353 0
2 -1354 0
3 -1354 0
-2 -3 1354 0
7 -1355 0
8 -1355 0
-7 -8 1355 0
1 -1356 0
6 -1356 0
-1 -6 1356 0
-1 -1357 0
-6 -1357 0
1 6 1357 0
-1356 -1358 0
-1357 -1358 0
1356 1357 1358 0
2 -1359 0
17 -1359 0
-2 -17 1359 0
7 -1360 0
3 -1360 0
-7 -3 1360 0
26 -1361 0
8 -1361 0
-26 -8 1361 0
21 -1362 0
25 -1362 0
-21 -25 1362 0
-21 -1363 0
-25 -1363 0
21 25 1363 0
-1362 -1364 0
-1363 -1364 0
1362 1363 1364 0
-36 -1365 0
-37 -1365 0
36 37 1365 0
34 -1366 0
30 -1366 0
-34 -30 1366 0
-34 -1367 0
-30 -1367 0
34 30 1367 0
-1366 -1368 0
-1367 -1368 0
1366 1367 1368 0
16 -1369 0
41 -1369 0
-16 -41 1369 0
-16 -1370 0
-41 -1370 0
16 41 1370 0
-1369 -1371 0
-1370 -1371 0
1369 1370 1371 0
50 -1372 0
2 -1372 0
-50 -2 1372 0
7 -1373 0
17 -1373 0
-7 -17 1373 0
26 -1374 0
3 -1374 0
-26 -3 1374 0
63 -1375 0
8 -1375 0
-63 -8 1375 0
58 -1376 0
62 -1376 0
-58 -62 1376 0
-58 -1377 0
-62 -1377 0
58 62 1377 0
-1376 -1378 0
-1377 -1378 0
1376 1377 1378 0
-72 -1379 0
-73 -1379 0
72 73 1379 0
67 -1380 0
71 -1380 0
-67 -71 1380 0
-67 -1381 0
-71 -1381 0
67 71 1381 0
-1380 -1382 0
-1381 -1382 0
1380 1381 1382 0
77 -1383 0
54 -1383 0
-77 -54 1383 0
-77 -1384 0
-54 -1384 0
77 54 1384 0
-1383 -1385 0
-1384 -1385 0
1383 1384 1385 0
-87 -1386 0
88 -1386 0
87 -88 1386 0
81 -1387 0
85 -1387 0
-81 -85 1387 0
-81 -1388 0
-85 -1388 0
81 85 1388 0
-1387 -1389 0
-1388 -1389 0
1387 1388 1389 0
49 -1390 0
92 -1390 0
-49 -92 1390 0
-49 -1391 0
-92 -1391 0
49 92 1391 0
-1390 -1392 0
-1391 -1392 0
1390 1391 1392 0
50 -1393 0
7 -1393 0
-50 -7 1393 0
26 -1394 0
17 -1394 0
-26 -17 1394 0
3 -1395 0
63 -1395 0
-3 -63 1395 0
-108 -1396 0
-113 -1396 0
108 113 1396 0
-118 -1397 0
-119 -1397 0
118 119 1397 0
112 -1398 0
117 -1398 0
-112 -117 1398 0
-112 -1399 0
-117 -1399 0
112 117 1399 0
-1398 -1400 0
-1399 -1400 0
1398 1399 1400 0
123 -1401 0
104 -1401 0
-123 -104 1401 0
-123 -1402 0
-104 -1402 0
123 104 1402 0
-1401 -1403 0
-1402 -1403 0
1401 1402 1403 0
-132 -1404 0
-133 -1404 0
132 133 1404 0
127 -1405 0
131 -1405 0
-127 -131 1405 0
-127 -1406 0
-131 -1406 0
127 131 1406 0
-1405 -1407 0
-1406 -1407 0
1405 1406 1407 0
137 -1408 0
100 -1408 0
-137 -100 1408 0
-137 -1409 0
-100 -1409 0
137 100 1409 0
-1408 -1410 0
-1409 -1410 0
1408 1409 1410 0
-147 -1411 0
148 -1411 0
147 -148 1411 0
50 -1412 0
26 -1412 0
-50 -26 1412 0
17 -1413 0
63 -1413 0
-17 -63 1413 0
161 -1414 0
-163 -1414 0
-161 163 1414 0
156 -1415 0
160 -1415 0
-156 -160 1415 0
-156 -1416 0
-160 -1416 0
156 160 1416 0
-1415 -1417 0
-1416 -1417 0
1415 1416 1417 0
-172 -1418 0
-173 -1418 0
172 173 1418 0
167 -1419 0
171 -1419 0
-167 -171 1419 0
-167 -1420 0
-171 -1420 0
167 171 1420 0
-1419 -1421 0
-1420 -1421 0
1419 1420 1421 0
152 -1422 0
177 -1422 0
-152 -177 1422 0
-152 -1423 0
-177 -1423 0
152 177 1423 0
-1422 -1424 0
-1423 -1424 0
1422 1423 1424 0
141 -1425 0
145 -1425 0
-141 -145 1425 0
-186 -1426 0
-187 -1426 0
186 187 1426 0
50 -1427 0
63 -1427 0
-50 -63 1427 0
-196 -1428 0
-197 -1428 0
196 197 1428 0
195 -1429 0
191 -1429 0
-195 -191 1429 0
-195 -1430 0
-191 -1430 0
195 191 1430 0
-1429 -1431 0
-1430 -1431 0
1429 1430 1431 0
185 -1432 0
181 -1432 0
-185 -181 1432 0
-206 -1433 0
-207 -1433 0
206 207 1433 0
215 -1434 0
211 -1434 0
-215 -211 1434 0
-215 -1435 0
-211 -1435 0
215 211 1435 0
-1434 -1436 0
-1435 -1436 0
1434 1435 1436 0
227 -1437 0
231 -1437 0
-227 -231 1437 0
-227 -1438 0
-231 -1438 0
227 231 1438 0
-1437 -1439 0
-1438 -1439 0
1437 1438 1439 0
-241 -1440 0
242 -1440 0
241 -242 1440 0
235 -1441 0
239 -1441 0
-235 -239 1441 0
-235 -1442 0
-239 -1442 0
235 239 1442 0
-1441 -1443 0
-1442 -1443 0
1441 1442 1443 0
223 -1444 0
246 -1444 0
-223 -246 1444 0
-223 -1445 0
-246 -1445 0
223 246 1445 0
-1444 -1446 0
-1445 -1446 0
1444 1445 1446 0
266 -1447 0
262 -1447 0
-266 -262 1447 0
-266 -1448 0
-262 -1448 0
266 262 1448 0
-1447 -1449 0
-1448 -1449 0
1447 1448 1449 0
-275 -1450 0
-276 -1450 0
275 276 1450 0
270 -1451 0
274 -1451 0
-270 -274 1451 0
280 -1452 0
258 -1452 0
-280 -258 1452 0
-280 -1453 0
-258 -1453 0
280 258 1453 0
-1452 -1454 0
-1453 -1454 0
1452 1453 1454 0
-290 -1455 0
291 -1455 0
290 -291 1455 0
288 -1456 0
284 -1456 0
-288 -284 1456 0
-288 -1457 0
-284 -1457 0
288 284 1457 0
-1456 -1458 0
-1457 -1458 0
1456 1457 1458 0
-306 -1459 0
-311 -1459 0
306 311 1459 0
-316 -1460 0
-317 -1460 0
316 317 1460 0
310 -1461 0
315 -1461 0
-310 -315 1461 0
-310 -1462 0
-315 -1462 0
310 315 1462 0
-1461 -1463 0
-1462 -1463 0
1461 1462 1463 0
-331 -1464 0
-332 -1464 0
331 332 1464 0
325 -1465 0
330 -1465 0
-325 -330 1465 0
-325 -1466 0
-330 -1466 0
325 330 1466 0
-1465 -1467 0
-1466 -1467 0
1465 1466 1467 0
336 -1468 0
302 -1468 0
-336 -302 1468 0
-336 -1469 0
-302 -1469 0
336 302 1469 0
-1468 -1470 0
-1469 -1470 0
1468 1469 1470 0
366 -1471 0
-368 -1471 0
-366 368 1471 0
387 -1472 0
354 -1472 0
-387 -354 1472 0
-387 -1473 0
-354 -1473 0
387 354 1473 0
-1472 -1474 0
-1473 -1474 0
1472 1473 1474 0
340 -1475 0
348 -1475 0
-340 -348 1475 0
-400 -1476 0
-401 -1476 0
400 401 1476 0
381 -1477 0
389 -1477 0
-381 -389 1477 0
358 -1478 0
365 -1478 0
-358 -365 1478 0
-413 -1479 0
-414 -1479 0
413 414 1479 0
412 -1480 0
408 -1480 0
-412 -408 1480 0
-412 -1481 0
-408 -1481 0
412 408 1481 0
-1480 -1482 0
-1481 -1482 0
1480 1481 1482 0
399 -1483 0
392 -1483 0
-399 -392 1483 0
-423 -1484 0
-424 -1484 0
423 424 1484 0
2 -1485 0
8 -1485 0
-2 -8 1485 0
-219 -1486 0
-431 -1486 0
219 431 1486 0
-12 -1487 0
-433 -1487 0
12 433 1487 0
-250 -1488 0
-437 -1488 0
250 437 1488 0
-45 -1489 0
-439 -1489 0
45 439 1489 0
-96 -1490 0
-445 -1490 0
96 445 1490 0
-340 -1491 0
-348 -1491 0
340 348 1491 0
-1475 -1492 0
-1491 -1492 0
1475 1491 1492 0
-141 -1493 0
-145 -1493 0
141 145 1493 0
-1425 -1494 0
-1493 -1494 0
1425 1493 1494 0
-185 -1495 0
-181 -1495 0
185 181 1495 0
-1432 -1496 0
-1495 -1496 0
1432 1495 1496 0
422 -1497 0
418 -1497 0
-422 -418 1497 0
-422 -1498 0
-418 -1498 0
422 418 1498 0
-1497 -1499 0
-1498 -1499 0
1497 1498 1499 0
205 -1500 0
201 -1500 0
-205 -201 1500 0
-205 -1501 0
-201 -1501 0
205 201 1501 0
-1500 -1502 0
-1501 -1502 0
1500 1501 1502 0
-461 -1503 0
-462 -1503 0
461 462 1503 0
-464 -1504 0
-465 -1504 0
464 465 1504 0
